EA0     6.394  9.819  4.199 90.03 90.00 
   1.00000000000000     
     6.3068009087397154   -0.0324802615470869    0.0003964451985663
    -1.8418549795544508    9.5907671557276863   -0.0032496903826708
     0.0005898112872010   -0.0034731474286871    4.1696174600262550
   V    Fe
    17     3
Direct
  0.7388235255524501  0.2357162946740309  0.8396964355201302
  0.1361222020976709  0.3362511606643662  0.8407962650477695
  0.1205966172459721  0.8299605807758513  0.8408122167642030
  0.3340716122918410  0.1341094833321482  0.8389699342911913
  0.5354453370585954  0.9287152962353539  0.8396887833494721
  0.5301056165551264  0.4333595921548280  0.8420092488196196
  0.3356192420893825  0.6361229187858546  0.8428536544283014
  0.9266472899892475  0.0289371245063794  0.8391424714962741
  0.9265010518960727  0.5334934592081164  0.8425752089434577
  0.6350983050190550  0.0810946609533303  0.3390996562950491
  0.6377253857598066  0.5892725906271534  0.3427808675205416
  0.2262358899955992  0.9824411439427637  0.3391484586874103
  0.4432044808615503  0.2867889295975279  0.3401266444452744
  0.4381310824008313  0.7875901147416133  0.3414811187361496
  0.2258271886102072  0.4852473492781109  0.3425113984493588
  0.0273788170488284  0.6903083067487903  0.3424221865732536
  0.0316751158869204  0.1893010443560834  0.3392714218509355
  0.7285054171993918  0.7291849928938897  0.8417717958349811
  0.8339032749932611  0.8888083579407506  0.3404153640644347
  0.8324025474482026  0.3853055985830638  0.3413658688821833
 
  0.00000000E+00  0.00000000E+00  0.00000000E+00
  0.00000000E+00  0.00000000E+00  0.00000000E+00
  0.00000000E+00  0.00000000E+00  0.00000000E+00
  0.00000000E+00  0.00000000E+00  0.00000000E+00
  0.00000000E+00  0.00000000E+00  0.00000000E+00
  0.00000000E+00  0.00000000E+00  0.00000000E+00
  0.00000000E+00  0.00000000E+00  0.00000000E+00
  0.00000000E+00  0.00000000E+00  0.00000000E+00
  0.00000000E+00  0.00000000E+00  0.00000000E+00
  0.00000000E+00  0.00000000E+00  0.00000000E+00
  0.00000000E+00  0.00000000E+00  0.00000000E+00
  0.00000000E+00  0.00000000E+00  0.00000000E+00
  0.00000000E+00  0.00000000E+00  0.00000000E+00
  0.00000000E+00  0.00000000E+00  0.00000000E+00
  0.00000000E+00  0.00000000E+00  0.00000000E+00
  0.00000000E+00  0.00000000E+00  0.00000000E+00
  0.00000000E+00  0.00000000E+00  0.00000000E+00
  0.00000000E+00  0.00000000E+00  0.00000000E+00
  0.00000000E+00  0.00000000E+00  0.00000000E+00
  0.00000000E+00  0.00000000E+00  0.00000000E+00
