EA0     6.394  9.819  4.199 90.03 90.00 100.67 Sym.group:    0
1.0
    6.393987     0.000000     0.000000
   -1.817693     9.648867     0.000000
    0.000326    -0.002117     4.199257
   V  Fe
  17   3
Direct
    0.738980     0.235850     0.839537 
    0.136151     0.336317     0.840801 
    0.120426     0.829918     0.840802 
    0.333812     0.134057     0.838758 
    0.535434     0.928719     0.839558 
    0.530209     0.433420     0.842208 
    0.335811     0.636153     0.843171 
    0.926523     0.028976     0.838955 
    0.926581     0.533470     0.842842 
    0.635198     0.081046     0.338910 
    0.637875     0.589221     0.343054 
    0.226087     0.982314     0.338972 
    0.443035     0.286762     0.340089 
    0.438315     0.787679     0.341529 
    0.226057     0.485273     0.342790 
    0.027311     0.690263     0.342637 
    0.031426     0.189367     0.339064 
    0.728575     0.729069     0.841687 
    0.833835     0.888788     0.340189 
    0.832379     0.385347     0.341386 
