EA0     6.294  8.002  5.144 90.00 90.00 
   1.00000000000000     
     4.9050403332785182    1.0081265110090458   -0.0331498836851882
     1.4025268635705199    8.0322392212805376   -0.3929860213373397
    -0.0259138872506956   -0.3166510462109068    6.5804498712482209
   V    Fe
    17     3
Direct
  0.4109818114720604  0.0411830498797413  0.3271105108173710
  0.5731444898639606  0.9348724985239656  0.6221948141825283
  0.8321030087138259  0.0940725826991026  0.1555550003390395
  0.1293059694829780  0.8574449832458696  0.7647941716974818
  0.3810978327226515  0.4490524048745199  0.2330608562030916
  0.6081608958512846  0.5599325001974294  0.7304025223727392
  0.8834892650403815  0.7327845526190732  0.2594852737090202
  0.0922723746065101  0.2596143530647266  0.6853251702518381
  0.3043721679310973  0.7715362669843058  0.0989397267173974
  0.6716825661843236  0.2095854689131312  0.8465536649650066
  0.4625123109334261  0.6850361799254305  0.4237467327122372
  0.5226655574116286  0.3033697271030181  0.5339794362223681
  0.7405023272744560  0.8141688118241914 -0.0612448967452132
  0.2149875587626729  0.2619901352693927  0.0888478892783230
 -0.0202111995177146 -0.0020319488120317  0.4654473262708960
  0.7593857211830135  0.4900936991003630  0.0519540806900714
  0.0364548934112219  0.6067289355373021  0.5722770056130677
  0.2821515180035699  0.0383438558597678 -0.0688590697175159
  0.9259892965509248  0.3728633475033831  0.3840644212766276
  0.1911916341177349  0.5215985956873472  0.8886053631436229
 
  0.00000000E+00  0.00000000E+00  0.00000000E+00
  0.00000000E+00  0.00000000E+00  0.00000000E+00
  0.00000000E+00  0.00000000E+00  0.00000000E+00
  0.00000000E+00  0.00000000E+00  0.00000000E+00
  0.00000000E+00  0.00000000E+00  0.00000000E+00
  0.00000000E+00  0.00000000E+00  0.00000000E+00
  0.00000000E+00  0.00000000E+00  0.00000000E+00
  0.00000000E+00  0.00000000E+00  0.00000000E+00
  0.00000000E+00  0.00000000E+00  0.00000000E+00
  0.00000000E+00  0.00000000E+00  0.00000000E+00
  0.00000000E+00  0.00000000E+00  0.00000000E+00
  0.00000000E+00  0.00000000E+00  0.00000000E+00
  0.00000000E+00  0.00000000E+00  0.00000000E+00
  0.00000000E+00  0.00000000E+00  0.00000000E+00
  0.00000000E+00  0.00000000E+00  0.00000000E+00
  0.00000000E+00  0.00000000E+00  0.00000000E+00
  0.00000000E+00  0.00000000E+00  0.00000000E+00
  0.00000000E+00  0.00000000E+00  0.00000000E+00
  0.00000000E+00  0.00000000E+00  0.00000000E+00
  0.00000000E+00  0.00000000E+00  0.00000000E+00
