EA0     6.294  8.002  5.144 90.00 90.00 90.00 Sym.group:    0
1.0
    6.294426     0.000000     0.000000
    0.000000     8.001585     0.000000
    0.000000     0.000000     5.143851
   V  Fe
  17   3
Direct
    0.224010     0.044550     0.211030 
    0.776210     0.955670     0.789190 
    0.723990     0.044530     0.289190 
    0.276230     0.955690     0.711030 
    0.223990     0.455670     0.211010 
    0.776230     0.544550     0.789210 
    0.968390     0.750100     0.396800 
    0.031830     0.250120     0.603420 
    0.468410     0.750120     0.103420 
    0.531810     0.250100     0.896800 
    0.349940     0.750100     0.480760 
    0.650280     0.250120     0.519460 
    0.849960     0.750120     0.019460 
    0.150260     0.250100     0.980760 
    0.000120     0.000120     0.500120 
    0.500120     0.500120     0.000120 
    0.000120     0.500120     0.500120 
    0.500120     0.000120     0.000120 
    0.724010     0.455690     0.289210 
    0.276210     0.544530     0.711010 
