EA0     6.853  9.166  4.256 90.09 73.79 
   1.00000000000000     
     6.4198947727042288   -0.3735717524714969    0.9700499017505022
    -1.0314258261178273   10.2096250935430852    0.1641066712492766
     0.7097294647213083    0.0375229884680615    4.0622338150167057
   V    Fe
    17     3
Direct
  0.1439842086785882  0.6675363520378327  0.4636645750753056
  0.2255467109914746  0.9619230460336664  0.4167907104854471
  0.4287841909387559  0.5208749033842758  0.3153158461305931
  0.6180609636941805  0.0976022629205529  0.2114943155094661
  0.8069507163314567  0.6682516338430401  0.1312340327241890
  0.9142264307837551  0.9589815777424062  0.0716779039418647
  0.1002499866686828  0.5192047617805439 -0.0212822810291022
  0.7115694866944937  0.3761846892861705  0.1676895462180283
  0.3184068296238974  0.2302756030220023  0.3619254408181530
  0.5194143787247388  0.8113550378306404  0.2729973047185404
  0.5540842503510708 -0.0406741660391280  0.7492457716304346
  0.7570141706774017  0.5227079265931417  0.6520964770161846
  0.0498058423807533  0.3774010827039059  0.4994485629235185
  0.0137974681571155  0.2310350714159493  0.0132328678537464
  0.1904009934134941  0.8045916755406849  0.9397115684310302
  0.8496854171454884  0.8104009887297382  0.6094106282580947
  0.6486903757712089  0.2374457182490413  0.6959784553320657
  0.3799047453366567  0.3813591404509927  0.8342838848376650
  0.4760108566871241  0.6689727805026491  0.7961668326666846
  0.9437219769496661  0.0956989139718833  0.5508845564580853
 
  0.00000000E+00  0.00000000E+00  0.00000000E+00
  0.00000000E+00  0.00000000E+00  0.00000000E+00
  0.00000000E+00  0.00000000E+00  0.00000000E+00
  0.00000000E+00  0.00000000E+00  0.00000000E+00
  0.00000000E+00  0.00000000E+00  0.00000000E+00
  0.00000000E+00  0.00000000E+00  0.00000000E+00
  0.00000000E+00  0.00000000E+00  0.00000000E+00
  0.00000000E+00  0.00000000E+00  0.00000000E+00
  0.00000000E+00  0.00000000E+00  0.00000000E+00
  0.00000000E+00  0.00000000E+00  0.00000000E+00
  0.00000000E+00  0.00000000E+00  0.00000000E+00
  0.00000000E+00  0.00000000E+00  0.00000000E+00
  0.00000000E+00  0.00000000E+00  0.00000000E+00
  0.00000000E+00  0.00000000E+00  0.00000000E+00
  0.00000000E+00  0.00000000E+00  0.00000000E+00
  0.00000000E+00  0.00000000E+00  0.00000000E+00
  0.00000000E+00  0.00000000E+00  0.00000000E+00
  0.00000000E+00  0.00000000E+00  0.00000000E+00
  0.00000000E+00  0.00000000E+00  0.00000000E+00
  0.00000000E+00  0.00000000E+00  0.00000000E+00
