EA0     6.853  9.166  4.256 90.09 73.79 93.85 Sym.group:    0
1.0
    6.798060    -0.039113     0.863726
   -0.572891     9.147544     0.044044
    0.663395     0.014758     4.204022
   V  Fe
  17   3
Direct
    0.141285     0.647599     0.461211 
    0.212637     0.977749     0.422414 
    0.530403     0.488185     0.264365 
    0.639653     0.032624     0.207625 
    0.774766     0.714064     0.141108 
    0.980425     0.979991     0.034227 
    0.982594     0.512985     0.036477 
    0.804181     0.278583     0.123444 
    0.382162     0.232619     0.339400 
    0.461593     0.805245     0.300817 
    0.433526     0.001900     0.810386 
    0.750725     0.516792     0.649903 
    0.057010     0.357093     0.500311 
    0.168962     0.213277     0.945262 
    0.185748     0.779215     0.935095 
    0.822119     0.842512     0.612063 
    0.596721     0.255489     0.726925 
    0.326215     0.458700     0.865855 
    0.500569     0.687596     0.778132 
    0.899016     0.118911     0.576947 
