EA0     6.370  9.635  4.287 90.01 90.00 
   1.00000000000000     
     6.3871926293064956   -0.0177550764862848   -0.0024566515748011
    -1.7183149385119847    9.4978149450728164    0.0031916518096562
     0.0015162693829037   -0.0015720522182663    4.1513527737013565
   V    Fe
    17     3
Direct
  0.7037346066343136  0.2687761403691084  0.4551847528052687
  0.8963354538021373  0.0668774275761483  0.4554348564291666
  0.3023134758986511  0.1691812938679690  0.4550859287949972
  0.0036613293630675  0.2189752645060551  0.9551865849285667
  0.5994070214118121  0.1190871739839758  0.9553287721143240
  0.5947494568294593  0.6235393224132040  0.9557727872947041
  0.9888459551741541  0.7232507785033107  0.9557390919260529
  0.2848203225956631  0.6736202808112793  0.4557027266138212
  0.4961608508498356  0.9707970097453639  0.4556674879268764
  0.6952288075331849  0.7730894594576952  0.4558056490162638
  0.2000232205907859  0.5219498304306803  0.9555178102153222
  0.4022648740208688  0.3228964057301182  0.9551636964305220
  0.3958424025670664  0.8253538214047804  0.9557854750930548
  0.5082054893596365  0.4740476871603686  0.4554821008034380
  0.8037914792989436  0.4244306687134718  0.9554383252182117
  0.0980096149373556  0.8761576972026248  0.4557572785539808
  0.0998146891606692  0.3713956897064185  0.4552360191770936
  0.1965662159200701  0.0219087607080972  0.9555775140669542
  0.7979049611160060  0.9199819720618225  0.9558379852692885
  0.8978147729363317  0.5748233156474927  0.4556851573220953
 
  0.00000000E+00  0.00000000E+00  0.00000000E+00
  0.00000000E+00  0.00000000E+00  0.00000000E+00
  0.00000000E+00  0.00000000E+00  0.00000000E+00
  0.00000000E+00  0.00000000E+00  0.00000000E+00
  0.00000000E+00  0.00000000E+00  0.00000000E+00
  0.00000000E+00  0.00000000E+00  0.00000000E+00
  0.00000000E+00  0.00000000E+00  0.00000000E+00
  0.00000000E+00  0.00000000E+00  0.00000000E+00
  0.00000000E+00  0.00000000E+00  0.00000000E+00
  0.00000000E+00  0.00000000E+00  0.00000000E+00
  0.00000000E+00  0.00000000E+00  0.00000000E+00
  0.00000000E+00  0.00000000E+00  0.00000000E+00
  0.00000000E+00  0.00000000E+00  0.00000000E+00
  0.00000000E+00  0.00000000E+00  0.00000000E+00
  0.00000000E+00  0.00000000E+00  0.00000000E+00
  0.00000000E+00  0.00000000E+00  0.00000000E+00
  0.00000000E+00  0.00000000E+00  0.00000000E+00
  0.00000000E+00  0.00000000E+00  0.00000000E+00
  0.00000000E+00  0.00000000E+00  0.00000000E+00
  0.00000000E+00  0.00000000E+00  0.00000000E+00
