EA0     6.370  9.635  4.287 90.01 90.00 100.07 Sym.group:    0
1.0
    6.369668     0.000000     0.000000
   -1.684025     9.487085     0.000000
    0.000065    -0.000420     4.287172
   V  Fe
  17   3
Direct
    0.767273     0.269035     0.411143 
    0.968895     0.063697     0.411943 
    0.359984     0.163954     0.411339 
    0.068659     0.216024     0.911294 
    0.659547     0.117292     0.911357 
    0.569371     0.623822     0.974266 
    0.964120     0.724137     0.974080 
    0.262855     0.672795     0.474087 
    0.468915     0.975106     0.474615 
    0.673615     0.775255     0.474292 
    0.169896     0.524062     0.974071 
    0.361326     0.323266     0.974549 
    0.377718     0.824525     0.974287 
    0.476275     0.475068     0.474365 
    0.775001     0.423888     0.974703 
    0.067793     0.874531     0.474282 
    0.065439     0.372677     0.474385 
    0.267296     0.023766     0.912573 
    0.771840     0.923249     0.974469 
    0.869677     0.573991     0.474290 
