EA0     6.364  9.725  4.257 90.03 89.99 
   1.00000000000000     
     6.3920838959967456   -0.0307889957239324   -0.0006868150691591
    -1.8210002607353517    9.5797034812461259    0.0013794680435370
    -0.0000282902961553   -0.0012360676717875    4.1217208737543451
   V    Fe
    17     3
Direct
  0.6885373937251790  0.3463814813634727  0.3820647947615823
  0.6956723808020407  0.8412309160052434  0.3815028004427506
  0.0859555382000798  0.4483199770094800  0.3821877758122985
  0.2860181420867469  0.2475092084846527  0.3818721024922189
  0.4755647553789414  0.0392167035874584  0.3813036520275201
  0.4949375422565848  0.5465013511929308  0.3822952661603605
  0.2818497515551823  0.7425044845980057  0.3816971408405559
  0.8891852852070624  0.1406549097496955  0.3815309351636969
  0.1835479352720414  0.0908680377822764  0.8815693665616229
  0.5857651963317907  0.1950541944898833  0.8817674448659905
  0.5834832227661678  0.6941949383133079  0.8818212658076465
  0.7830574928912838 -0.0079291753801363  0.8813070473043849
  0.9925788272779534  0.7938271387970752  0.8815934092310785
  0.9868691127354127  0.2924372279501351  0.8820340748530920
  0.7964796138895575  0.5001361664587525  0.8823130398320264
  0.3849653916913339  0.8903264207528091  0.8815069788407242
  0.3830965605702265  0.3980756863465953  0.8822562266758557
  0.8922397091728931  0.6460698221208591  0.3817958531171356
  0.0868771166131790  0.9432886785539226  0.3812356184162136
  0.1851590315763389  0.5949408318235809  0.8820142067932590
 
  0.00000000E+00  0.00000000E+00  0.00000000E+00
  0.00000000E+00  0.00000000E+00  0.00000000E+00
  0.00000000E+00  0.00000000E+00  0.00000000E+00
  0.00000000E+00  0.00000000E+00  0.00000000E+00
  0.00000000E+00  0.00000000E+00  0.00000000E+00
  0.00000000E+00  0.00000000E+00  0.00000000E+00
  0.00000000E+00  0.00000000E+00  0.00000000E+00
  0.00000000E+00  0.00000000E+00  0.00000000E+00
  0.00000000E+00  0.00000000E+00  0.00000000E+00
  0.00000000E+00  0.00000000E+00  0.00000000E+00
  0.00000000E+00  0.00000000E+00  0.00000000E+00
  0.00000000E+00  0.00000000E+00  0.00000000E+00
  0.00000000E+00  0.00000000E+00  0.00000000E+00
  0.00000000E+00  0.00000000E+00  0.00000000E+00
  0.00000000E+00  0.00000000E+00  0.00000000E+00
  0.00000000E+00  0.00000000E+00  0.00000000E+00
  0.00000000E+00  0.00000000E+00  0.00000000E+00
  0.00000000E+00  0.00000000E+00  0.00000000E+00
  0.00000000E+00  0.00000000E+00  0.00000000E+00
  0.00000000E+00  0.00000000E+00  0.00000000E+00
