EA0     6.364  9.725  4.257 90.03 89.99 100.47 Sym.group:    0
1.0
    6.364059     0.000000     0.000000
   -1.767065     9.562759     0.000000
    0.000424    -0.002113     4.256995
   V  Fe
  17   3
Direct
    0.679238     0.332737     0.363033 
    0.687036     0.833183     0.363525 
    0.073988     0.433052     0.362848 
    0.279763     0.232977     0.362839 
    0.471193     0.032181     0.363317 
    0.487585     0.533440     0.363054 
    0.271684     0.732539     0.363436 
    0.884868     0.132802     0.363471 
    0.202518     0.108759     0.899044 
    0.599689     0.209226     0.900308 
    0.583964     0.702827     0.900309 
    0.797350     0.006966     0.898265 
    0.998972     0.801628     0.899065 
    0.993748     0.306329     0.901715 
    0.799349     0.509062     0.902678 
    0.390061     0.901885     0.898462 
    0.390119     0.406379     0.902348 
    0.881707     0.632163     0.363237 
    0.076894     0.933496     0.363521 
    0.192114     0.601978     0.901194 
