EA0     6.097 10.518  4.040 90.00 90.00 
   1.00000000000000     
     6.2512310654239283    0.8699747814261929   -0.7663641143104859
     1.1824476063972225   10.2133197949027199    0.6090566903719612
    -0.6436843259599873   -0.0832654863534696    4.0415355920484535
   V    Fe
    17     3
Direct
  0.3994726835129936  0.3164540402744579  0.7033821028855111
  0.6011201503143220  0.6338167164338420  0.2970994371647396
  0.7985309456582882  0.1692527311356890  0.9001087272232691
  0.2014069097315209  0.7809733402063455  0.1000078033508513
 -0.0004241237452168  0.7362358869384049 -0.5029147487786079
  0.0006245870757513  0.2140140024048080  0.5030719497712576
  0.3990084430961892  0.8326349325153448 -0.3029827726718048
  0.5963134641970316  0.3725462549387858  0.3018450344132745
  0.1988840678701175  0.5279503802073306  0.0964454171268462
  0.8020113120882143  0.4223170583947952  0.9042250704667436
  0.7991687717701864  0.6801798908706237 -0.0994421444119153
  0.2010601291259275  0.2700523969857497  0.0997858728564067
  0.2014852589468799  0.0222787821102776  0.0999778810863943
  0.7980887407599623 -0.0721063398907904 -0.1001713214716940
  0.0005711467266460  0.4751318462995263  0.5003117952065088
  0.4044758361496820  0.5776923434082887 -0.3011975605765511
  0.6007891994752907  0.1175517104718445  0.3029164631006098
 -0.0001378406275341 -0.0249138106792583  0.4999202827996245
  0.6003085559371335  0.8812236209964381  0.3005820723056546
  0.3994817619366461  0.0689542159775412  0.6992686381529077
 
  0.00000000E+00  0.00000000E+00  0.00000000E+00
  0.00000000E+00  0.00000000E+00  0.00000000E+00
  0.00000000E+00  0.00000000E+00  0.00000000E+00
  0.00000000E+00  0.00000000E+00  0.00000000E+00
  0.00000000E+00  0.00000000E+00  0.00000000E+00
  0.00000000E+00  0.00000000E+00  0.00000000E+00
  0.00000000E+00  0.00000000E+00  0.00000000E+00
  0.00000000E+00  0.00000000E+00  0.00000000E+00
  0.00000000E+00  0.00000000E+00  0.00000000E+00
  0.00000000E+00  0.00000000E+00  0.00000000E+00
  0.00000000E+00  0.00000000E+00  0.00000000E+00
  0.00000000E+00  0.00000000E+00  0.00000000E+00
  0.00000000E+00  0.00000000E+00  0.00000000E+00
  0.00000000E+00  0.00000000E+00  0.00000000E+00
  0.00000000E+00  0.00000000E+00  0.00000000E+00
  0.00000000E+00  0.00000000E+00  0.00000000E+00
  0.00000000E+00  0.00000000E+00  0.00000000E+00
  0.00000000E+00  0.00000000E+00  0.00000000E+00
  0.00000000E+00  0.00000000E+00  0.00000000E+00
  0.00000000E+00  0.00000000E+00  0.00000000E+00
