EA0     6.097 10.518  4.040 90.00 90.00 90.00 Sym.group:    0
1.0
    6.096575     0.000000     0.000000
    0.000000    10.517551     0.000000
    0.000000     0.000000     4.040359
   V  Fe
  17   3
Direct
    0.248560     0.250120     0.500540 
    0.751660     0.750100     0.499680 
    0.751680     0.250120     0.500540 
    0.248540     0.750100     0.499680 
    0.748560     0.750120     0.000540 
    0.251660     0.250100     0.999680 
    0.251680     0.750120     0.000540 
    0.748540     0.250100     0.999680 
    0.250120     0.583530     0.250120 
    0.750100     0.416690     0.750100 
    0.750100     0.583510     0.250100 
    0.250120     0.416710     0.750120 
    0.250100     0.916690     0.250100 
    0.750120     0.083530     0.750120 
    0.000120     0.500120     0.500120 
    0.500120     0.500120     0.000120 
    0.500120     0.000120     0.000120 
    0.000120     0.000120     0.500120 
    0.750120     0.916710     0.250120 
    0.250100     0.083510     0.750100 
