EA0     7.448  9.568  4.008 66.30 85.98 
   1.00000000000000     
     7.6465097932422497   -0.5902328036505772    0.0327844555938980
    -1.6251081474945814    8.0504219167441953   -1.2432584756518885
     0.1382039283872782    0.7806260445095683    3.9811498312366536
   V    Fe
    17     3
Direct
  0.7876871887149585  0.8709545706302332  0.2752397660672076
  0.7869947194770555  0.3553409371505796  0.2649231389478374
  0.1803830880513856 -0.0300111159580970  0.2751811383190437
  0.3913263078346783  0.7709397867489540  0.2727607455022714
  0.5858125912045620  0.5613271444936861  0.2659093112866214
  0.1852900362241708  0.4567539268096161  0.2690615694977200
  0.3829018277334194  0.2587467688920285  0.2706556773007264
 -0.0136939495815929  0.6627241647842316  0.2747966349426297
  0.7893228703204296  0.6136272815509983  0.7688039481499608
  0.7917405775751429  0.1141481935497688  0.7681286345750676
  0.1896302015707390  0.7170607817427144  0.7729991710242538
  0.5929170972962854  0.3136536776556864  0.7635019523392153
 -0.0079584833190711  0.4059586016741857  0.7682520168759405
  0.9924183502696525  0.9251537478872615  0.7756474214738788
  0.3830887886566005  0.5079701031230360  0.7685835085613382
  0.3914091071561419  0.0189598741825937  0.7743951472208165
  0.5870513090384949  0.8149788453281296  0.7731744414616012
  0.9790969451070107  0.1627697227344762  0.2733466495996641
  0.5855018440031416  0.0653661656469987  0.2695776835080722
  0.1982095826668015  0.2133048213729111  0.7678634433461338
 
  0.00000000E+00  0.00000000E+00  0.00000000E+00
  0.00000000E+00  0.00000000E+00  0.00000000E+00
  0.00000000E+00  0.00000000E+00  0.00000000E+00
  0.00000000E+00  0.00000000E+00  0.00000000E+00
  0.00000000E+00  0.00000000E+00  0.00000000E+00
  0.00000000E+00  0.00000000E+00  0.00000000E+00
  0.00000000E+00  0.00000000E+00  0.00000000E+00
  0.00000000E+00  0.00000000E+00  0.00000000E+00
  0.00000000E+00  0.00000000E+00  0.00000000E+00
  0.00000000E+00  0.00000000E+00  0.00000000E+00
  0.00000000E+00  0.00000000E+00  0.00000000E+00
  0.00000000E+00  0.00000000E+00  0.00000000E+00
  0.00000000E+00  0.00000000E+00  0.00000000E+00
  0.00000000E+00  0.00000000E+00  0.00000000E+00
  0.00000000E+00  0.00000000E+00  0.00000000E+00
  0.00000000E+00  0.00000000E+00  0.00000000E+00
  0.00000000E+00  0.00000000E+00  0.00000000E+00
  0.00000000E+00  0.00000000E+00  0.00000000E+00
  0.00000000E+00  0.00000000E+00  0.00000000E+00
  0.00000000E+00  0.00000000E+00  0.00000000E+00
