EA0     7.448  9.568  4.008 66.30 85.98 94.53 Sym.group:    0
1.0
    7.448009     0.000000     0.000000
   -0.754989     9.537702     0.000000
    0.281022     1.638562     3.647007
   V  Fe
  17   3
Direct
    0.765384     0.843358     0.270629 
    0.811452     0.391413     0.270715 
    0.168821     1.029575     0.270732 
    0.359712     0.765679     0.270676 
    0.615671     0.584301     0.270665 
    0.193907     0.409982     0.270640 
    0.442380     0.280425     0.270846 
    1.050087     0.688231     0.270623 
    0.856334     0.631236     0.770595 
    0.715255     0.083280     0.770404 
    0.194719     0.718055     0.770652 
    0.628055     0.344891     0.770774 
    1.011297     0.360904     0.770596 
    0.982334     0.953088     0.770635 
    0.399218     0.501404     0.770641 
    0.389488     0.029759     0.770767 
    0.561883     0.780010     0.770623 
    0.844495     0.122049     0.270332 
    0.550238     0.050301     0.270655 
    0.218400     0.211787     0.770602 
