EA0     6.388  6.388  6.388 86.27 86.27 
   1.00000000000000     
     6.5810944053967191    0.7866125148455021    0.7400004692429611
     1.2125438536225415    6.5160794689040848    0.7400004222553445
     1.2125439278361694    1.1361615252069364    6.4587947889573956
   V    Fe
    17     3
Direct
  0.5005069299043864  0.6364453817344078  0.1930160532757126
  0.1930160529358619  0.5005069301201932  0.6364453817735855
  0.6364453816869200  0.1930160535506643  0.5005069302663241
  0.4994930700956136  0.3635546182655923  0.8069839467242872
  0.8069839470641381  0.4994930698798065  0.3635546182264143
  0.3635546183130796  0.8069839464493356  0.4994930697336759
  0.1514548795250761  0.1514548801788358  0.1514548801120950
  0.8485451204749238  0.8485451198211643  0.8485451198879049
  0.0000000000000000 -0.0000000000000000  0.0000000000000000
  0.6563194451462462  0.9473692641199334  0.2891020201592296
  0.2891020201895884  0.6563194452493544  0.9473692641979869
  0.9473692641320814  0.2891020202987677  0.6563194452904063
  0.3436805548537540  0.0526307358800668  0.7108979798407706
  0.7108979798104114  0.3436805547506459  0.0526307358020124
  0.0526307358679185  0.7108979797012320  0.3436805547095941
  0.6951665721255162  0.6951665717196492  0.6951665717610830
  0.3048334278744841  0.3048334282803506  0.3048334282389170
  0.0000000000000000 -0.0000000000000000  0.5000000000000000
  0.5000000000000000 -0.0000000000000000  0.0000000000000000
  0.0000000000000000  0.5000000000000000  0.0000000000000000
 
  0.00000000E+00  0.00000000E+00  0.00000000E+00
  0.00000000E+00  0.00000000E+00  0.00000000E+00
  0.00000000E+00  0.00000000E+00  0.00000000E+00
  0.00000000E+00  0.00000000E+00  0.00000000E+00
  0.00000000E+00  0.00000000E+00  0.00000000E+00
  0.00000000E+00  0.00000000E+00  0.00000000E+00
  0.00000000E+00  0.00000000E+00  0.00000000E+00
  0.00000000E+00  0.00000000E+00  0.00000000E+00
  0.00000000E+00  0.00000000E+00  0.00000000E+00
  0.00000000E+00  0.00000000E+00  0.00000000E+00
  0.00000000E+00  0.00000000E+00  0.00000000E+00
  0.00000000E+00  0.00000000E+00  0.00000000E+00
  0.00000000E+00  0.00000000E+00  0.00000000E+00
  0.00000000E+00  0.00000000E+00  0.00000000E+00
  0.00000000E+00  0.00000000E+00  0.00000000E+00
  0.00000000E+00  0.00000000E+00  0.00000000E+00
  0.00000000E+00  0.00000000E+00  0.00000000E+00
  0.00000000E+00  0.00000000E+00  0.00000000E+00
  0.00000000E+00  0.00000000E+00  0.00000000E+00
  0.00000000E+00  0.00000000E+00  0.00000000E+00
