EA0     6.388  6.388  6.388 86.27 86.27 86.27 Sym.group:    0
1.0
    6.387867     0.000000     0.000000
    0.415039     6.374369     0.000000
    0.415039     0.388894     6.362495
   V  Fe
  17   3
Direct
    0.503276     0.632820     0.263741 
    0.263741     0.503276     0.632820 
    0.632820     0.263741     0.503276 
    0.496724     0.367180     0.736259 
    0.736259     0.496724     0.367180 
    0.367180     0.736259     0.496724 
    0.218856     0.218856     0.218856 
    0.781144     0.781144     0.781144 
    0.000000     0.000000     0.000000 
    0.625841     0.985290     0.306728 
    0.306728     0.625841     0.985290 
    0.985290     0.306728     0.625841 
    0.374159     0.014710     0.693272 
    0.693272     0.374159     0.014710 
    0.014710     0.693272     0.374159 
    0.628021     0.628021     0.628021 
    0.371979     0.371979     0.371979 
    0.000000     0.000000     0.500000 
    0.500000     0.000000     0.000000 
    0.000000     0.500000     0.000000 
