EA0     5.862  5.862  7.540 90.00 90.00 
   1.00000000000000     
     5.5913351717688995    0.0000000028510449    0.0000000000000000
    -0.0000000028510449    5.5913351717688995   -0.0000000000000000
     0.0000000000000000    0.0000000000000000    8.3978995832226584
   V    Fe
    17     3
Direct
  0.0000000000000000  0.0000000000000000  0.6208701362834419
  0.2491331306706241  0.7481986208210847  0.7959605556751601
  0.7508668693293760  0.2518013791789148  0.7959605556751601
  0.2518013791789148  0.2491331306706241  0.7959605556751601
  0.7481986208210847  0.7508668693293760  0.7959605556751601
  0.3018605895236978  0.7959359366538538  0.4344860162644876
  0.6981394104763022  0.2040640633461467  0.4344860162644877
  0.2040640633461467  0.3018605895236978  0.4344860162644876
  0.7959359366538538  0.6981394104763022  0.4344860162644877
  0.5000000000000000  0.5000000000000000 -0.0199795555748684
  0.0000000000000000  0.5000000000000000 -0.0020240036362302
  0.5000000000000000  0.0000000000000000 -0.0020240036362302
  0.3075992392738798  0.1928573901775058  0.1929871350334624
  0.6924007607261196  0.8071426098224951  0.1929871350334624
  0.8071426098224951  0.3075992392738798  0.1929871350334624
  0.1928573901775057  0.6924007607261197  0.1929871350334624
  0.0000000000000000  0.0000000000000000 -0.0144772187664658
  0.5000000000000000  0.5000000000000000  0.6285509679038026
  0.0000000000000000  0.5000000000000000  0.6318209247670533
  0.5000000000000000  0.0000000000000000  0.6318209247670533
 
  0.00000000E+00  0.00000000E+00  0.00000000E+00
  0.00000000E+00  0.00000000E+00  0.00000000E+00
  0.00000000E+00  0.00000000E+00  0.00000000E+00
  0.00000000E+00  0.00000000E+00  0.00000000E+00
  0.00000000E+00  0.00000000E+00  0.00000000E+00
  0.00000000E+00  0.00000000E+00  0.00000000E+00
  0.00000000E+00  0.00000000E+00  0.00000000E+00
  0.00000000E+00  0.00000000E+00  0.00000000E+00
  0.00000000E+00  0.00000000E+00  0.00000000E+00
  0.00000000E+00  0.00000000E+00  0.00000000E+00
  0.00000000E+00  0.00000000E+00  0.00000000E+00
  0.00000000E+00  0.00000000E+00  0.00000000E+00
  0.00000000E+00  0.00000000E+00  0.00000000E+00
  0.00000000E+00  0.00000000E+00  0.00000000E+00
  0.00000000E+00  0.00000000E+00  0.00000000E+00
  0.00000000E+00  0.00000000E+00  0.00000000E+00
  0.00000000E+00  0.00000000E+00  0.00000000E+00
  0.00000000E+00  0.00000000E+00  0.00000000E+00
  0.00000000E+00  0.00000000E+00  0.00000000E+00
  0.00000000E+00  0.00000000E+00  0.00000000E+00
