EA0     5.862  5.862  7.540 90.00 90.00 90.00 Sym.group:    0
1.0
    5.861746     0.000000     0.000000
    0.000000     5.861746     0.000000
    0.000000     0.000000     7.539918
   V  Fe
  17   3
Direct
    0.000000     0.000000     0.337055 
    0.170883     0.799367     0.609072 
    0.829117     0.200633     0.609072 
    0.200633     0.170883     0.609072 
    0.799367     0.829117     0.609072 
    0.392694     0.692779     0.450305 
    0.607306     0.307221     0.450305 
    0.307221     0.392694     0.450305 
    0.692779     0.607306     0.450305 
    0.500000     0.500000     0.004141 
    0.000000     0.500000     0.071117 
    0.500000     0.000000     0.071117 
    0.401388     0.167302     0.292475 
    0.598612     0.832698     0.292475 
    0.832698     0.401388     0.292475 
    0.167302     0.598612     0.292475 
    0.000000     0.000000     0.002400 
    0.500000     0.500000     0.723039 
    0.000000     0.500000     0.776008 
    0.500000     0.000000     0.776008 
