EA0     6.415  6.615  6.615 72.36 81.53 
   1.00000000000000     
     6.6809372412980821   -0.0878071107830232    0.1239869903638917
    -1.1436128139523818    6.2719532100029936   -0.5562971915257702
     1.1436128282521518    1.5573132926786504    6.1009541623452463
   V    Fe
    17     3
Direct
  0.4577945783649853  0.8319071318897993  0.4311410099339407
  0.5422054216112216  0.4311410099104721  0.8319071318496108
  0.5422054216350146  0.1680928681102005  0.5688589900660590
  0.4577945783887788  0.5688589900895272  0.1680928681503893
  0.8585425169715497  0.6172099412865801  0.0578447581737058
  0.1414574830282674  0.0578447581316933  0.6172099413307470
  0.1414574830284502  0.3827900587134203 -0.0578447581737057
  0.8585425169717327 -0.0578447581316932  0.3827900586692533
  0.1564185764867794  0.7426419422476588  0.2573580577786750
  0.8435814235132203  0.2573580577523414  0.7426419422213248
  0.2972215360683419  0.7625401499260536  0.8433551936418092
  0.7027784640878995  0.8433551937604906  0.7625401498508564
  0.7027784639316578  0.2374598500739463  0.1566448063581903
  0.2972215359121005  0.1566448062395093  0.2374598501491436
 -0.0000000000448059  0.6519039262783661  0.6519039262828715
  0.0000000000448059  0.3480960737216342  0.3480960737171289
  0.0000000000000000  0.0000000000000000  0.0000000000000000
  0.5000000000000000  0.0000000000000000  0.0000000000000000
  0.2798097916017673  0.4386649614134994  0.5613350385962823
  0.7201902083982327  0.5613350385865001  0.4386649614037174
 
  0.00000000E+00  0.00000000E+00  0.00000000E+00
  0.00000000E+00  0.00000000E+00  0.00000000E+00
  0.00000000E+00  0.00000000E+00  0.00000000E+00
  0.00000000E+00  0.00000000E+00  0.00000000E+00
  0.00000000E+00  0.00000000E+00  0.00000000E+00
  0.00000000E+00  0.00000000E+00  0.00000000E+00
  0.00000000E+00  0.00000000E+00  0.00000000E+00
  0.00000000E+00  0.00000000E+00  0.00000000E+00
  0.00000000E+00  0.00000000E+00  0.00000000E+00
  0.00000000E+00  0.00000000E+00  0.00000000E+00
  0.00000000E+00  0.00000000E+00  0.00000000E+00
  0.00000000E+00  0.00000000E+00  0.00000000E+00
  0.00000000E+00  0.00000000E+00  0.00000000E+00
  0.00000000E+00  0.00000000E+00  0.00000000E+00
  0.00000000E+00  0.00000000E+00  0.00000000E+00
  0.00000000E+00  0.00000000E+00  0.00000000E+00
  0.00000000E+00  0.00000000E+00  0.00000000E+00
  0.00000000E+00  0.00000000E+00  0.00000000E+00
  0.00000000E+00  0.00000000E+00  0.00000000E+00
  0.00000000E+00  0.00000000E+00  0.00000000E+00
