EA0     6.415  6.615  6.615 72.36 81.53 98.47 Sym.group:    0
1.0
    6.415122     0.000000     0.000000
   -0.974455     6.543118     0.000000
    0.974455     2.172081     6.172071
   V  Fe
  17   3
Direct
    0.588241     0.827955     0.381850 
    0.411759     0.381850     0.827955 
    0.411759     0.172045     0.618150 
    0.588241     0.618150     0.172045 
    0.817943     0.584367     0.916800 
    0.182057     0.916800     0.584367 
    0.182057     0.415633     0.083200 
    0.817943     0.083200     0.415633 
    0.169961     0.739367     0.260633 
    0.830039     0.260633     0.739367 
    0.251660     0.774911     0.894311 
    0.748340     0.894311     0.774911 
    0.748340     0.225089     0.105689 
    0.251660     0.105689     0.225089 
    0.000000     0.634850     0.634850 
    0.000000     0.365150     0.365150 
    0.000000     0.000000     0.000000 
    0.500000     0.000000     0.000000 
    0.223418     0.473212     0.526788 
    0.776582     0.526788     0.473212 
