EA0     7.567  7.769  4.407 90.00 90.00 
   1.00000000000000     
     7.0042983699313837    0.0000000000000000    0.0000000000000000
     0.0000000000000000    9.0104144077127231    0.0000000000000000
     0.0000000000000000    0.0000000000000000    4.2063707834185591
   V    Fe
    17     3
Direct
  0.1945843221417204  0.5000000000000000  0.5000000000000000
  0.8054156778582797  0.5000000000000000  0.5000000000000000
  0.6609309836244813  0.8599358190503880  0.9999671090210360
  0.6609309836244813  0.1400641809496119  0.0000328909789637
  0.3390690163755189  0.8599358190503879  0.0000328909789637
  0.3390690163755189  0.1400641809496119  0.9999671090210360
  0.5000000000000000  0.3099817472269141  0.5000000000000000
  0.5000000000000000  0.6900182527730859  0.5000000000000000
  0.0000000000000000  0.7743015997905796  0.5000000000000000
  0.0000000000000000  0.2256984002094205  0.5000000000000000
  0.5000000000000000  0.5000000000000000 -0.0000000000000000
  0.0000000000000000  0.8720308618286887 -0.0000000000000000
  0.0000000000000000  0.1279691381713114 -0.0000000000000000
  0.8065038125373253  0.3680123722882119  0.0004341946854281
  0.8065038125373253  0.6319876277117881 -0.0004341946854281
  0.1934961874626749  0.3680123722882119 -0.0004341946854281
  0.1934961874626749  0.6319876277117881  0.0004341946854281
  0.5000000000000000 -0.0000000000000000  0.5000000000000000
  0.1835505657037278 -0.0000000000000000  0.5000000000000000
  0.8164494342962720 -0.0000000000000000  0.5000000000000000
 
  0.00000000E+00  0.00000000E+00  0.00000000E+00
  0.00000000E+00  0.00000000E+00  0.00000000E+00
  0.00000000E+00  0.00000000E+00  0.00000000E+00
  0.00000000E+00  0.00000000E+00  0.00000000E+00
  0.00000000E+00  0.00000000E+00  0.00000000E+00
  0.00000000E+00  0.00000000E+00  0.00000000E+00
  0.00000000E+00  0.00000000E+00  0.00000000E+00
  0.00000000E+00  0.00000000E+00  0.00000000E+00
  0.00000000E+00  0.00000000E+00  0.00000000E+00
  0.00000000E+00  0.00000000E+00  0.00000000E+00
  0.00000000E+00  0.00000000E+00  0.00000000E+00
  0.00000000E+00  0.00000000E+00  0.00000000E+00
  0.00000000E+00  0.00000000E+00  0.00000000E+00
  0.00000000E+00  0.00000000E+00  0.00000000E+00
  0.00000000E+00  0.00000000E+00  0.00000000E+00
  0.00000000E+00  0.00000000E+00  0.00000000E+00
  0.00000000E+00  0.00000000E+00  0.00000000E+00
  0.00000000E+00  0.00000000E+00  0.00000000E+00
  0.00000000E+00  0.00000000E+00  0.00000000E+00
  0.00000000E+00  0.00000000E+00  0.00000000E+00
