EA0     7.567  7.769  4.407 90.00 90.00 90.00 Sym.group:    0
1.0
    7.567114     0.000000     0.000000
    0.000000     7.768847     0.000000
    0.000000     0.000000     4.406905
   V  Fe
  17   3
Direct
    0.245052     0.500000     0.500000 
    0.754948     0.500000     0.500000 
    0.723352     0.867307     0.936950 
    0.723352     0.132693     0.063050 
    0.276648     0.867307     0.063050 
    0.276648     0.132693     0.936950 
    0.500000     0.362431     0.500000 
    0.500000     0.637569     0.500000 
    0.000000     0.833595     0.500000 
    0.000000     0.166405     0.500000 
    0.500000     0.500000     0.000000 
    0.000000     0.829866     0.000000 
    0.000000     0.170134     0.000000 
    0.863879     0.375981     0.967890 
    0.863879     0.624019     0.032110 
    0.136121     0.375981     0.032110 
    0.136121     0.624019     0.967890 
    0.500000     0.000000     0.500000 
    0.243035     0.000000     0.500000 
    0.756965     0.000000     0.500000 
