EA0     6.365  9.702  4.265 90.02 90.00 
   1.00000000000000     
     6.3525255207993547   -0.0591883419015501   -0.0002374483242218
    -1.8329207938767911    9.5599793499033439    0.0021189262961522
     0.0001760733613278   -0.0007931389922390    4.1504949215236362
   V    Fe
    17     3
Direct
  0.5530761630450020  0.5015850332265765  0.8667488621719459
  0.5638986034073247  0.0027844468841972  0.8671963085510052
  0.9496965333954273  0.6023828346233409  0.8667600488028117
  0.8554252770306394  0.9524175229423770  0.3671880049839958
  0.2572134159976645  0.0515729223677507  0.3672234797807057
  0.2460446371013677  0.5501817912211482  0.3667312604521697
  0.4536433356137967  0.8532825338265955  0.3670679353727426
  0.6605070103203785  0.6543059003036829  0.3667703504805892
  0.1578910684738516  0.4032625230636438  0.8668375488767431
  0.3486190140722937  0.2013057454218941  0.8670853737614195
  0.3622910835434371  0.7035479862393149  0.8668104585504107
  0.1469527860670426  0.9020657739571978  0.8671407833884514
  0.6542888655676127  0.1520204497871342  0.3671402826112098
  0.4649137089544979  0.3546709744254586  0.3668976358656361
  0.7612422830195894  0.3024467477230954  0.8669607670976268
  0.0565921522428195  0.7528235231001269  0.3669169785775587
  0.0504151312643036  0.2505362857978328  0.3670220878977424
  0.7564841291642421  0.8020957790782006  0.8670407579045912
  0.9543442167368479  0.1027275058239109  0.8672109158595152
  0.8554955849818743  0.4523947201865081  0.3668711590131295
 
  0.00000000E+00  0.00000000E+00  0.00000000E+00
  0.00000000E+00  0.00000000E+00  0.00000000E+00
  0.00000000E+00  0.00000000E+00  0.00000000E+00
  0.00000000E+00  0.00000000E+00  0.00000000E+00
  0.00000000E+00  0.00000000E+00  0.00000000E+00
  0.00000000E+00  0.00000000E+00  0.00000000E+00
  0.00000000E+00  0.00000000E+00  0.00000000E+00
  0.00000000E+00  0.00000000E+00  0.00000000E+00
  0.00000000E+00  0.00000000E+00  0.00000000E+00
  0.00000000E+00  0.00000000E+00  0.00000000E+00
  0.00000000E+00  0.00000000E+00  0.00000000E+00
  0.00000000E+00  0.00000000E+00  0.00000000E+00
  0.00000000E+00  0.00000000E+00  0.00000000E+00
  0.00000000E+00  0.00000000E+00  0.00000000E+00
  0.00000000E+00  0.00000000E+00  0.00000000E+00
  0.00000000E+00  0.00000000E+00  0.00000000E+00
  0.00000000E+00  0.00000000E+00  0.00000000E+00
  0.00000000E+00  0.00000000E+00  0.00000000E+00
  0.00000000E+00  0.00000000E+00  0.00000000E+00
  0.00000000E+00  0.00000000E+00  0.00000000E+00
