EA0     6.365  9.702  4.265 90.02 90.00 100.38 Sym.group:    0
1.0
    6.365306     0.000000     0.000000
   -1.747375     9.543713     0.000000
    0.000325    -0.001706     4.264655
   V  Fe
  17   3
Direct
    0.555282     0.502289     0.866777 
    0.563080     0.002735     0.867269 
    0.950031     0.602604     0.866592 
    0.855441     0.952414     0.367383 
    0.256074     0.051299     0.367226 
    0.248766     0.551262     0.366599 
    0.454825     0.853573     0.367126 
    0.659526     0.653722     0.366804 
    0.155807     0.402529     0.866582 
    0.347237     0.201733     0.867060 
    0.363629     0.702992     0.866798 
    0.147728     0.902091     0.867179 
    0.657181     0.151913     0.367401 
    0.462186     0.353535     0.366876 
    0.760912     0.302355     0.867215 
    0.053704     0.752998     0.366793 
    0.051349     0.251144     0.366896 
    0.757751     0.801716     0.866980 
    0.952938     0.103048     0.867264 
    0.855588     0.452459     0.366801 
