EA0     6.368  9.830  4.214 90.05 89.99 
   1.00000000000000     
     6.3738824864232742    0.0290800884581496   -0.0004478296384348
    -1.8040567846729740    9.5433478222838755    0.0016636386299420
     0.0003370345495948   -0.0027095989305115    4.1398631930763985
   V    Fe
    17     3
Direct
  0.5473917521143125  0.4815558005512152  0.0762084809882699
  0.9568774688782292  0.5812162304749610  0.0761993380986795
  0.9545730552664666  0.0752389967578626  0.0744238116445928
  0.1490668737771498  0.3785626004471767  0.0756626269806010
  0.3491015184816197  0.1776554295698549  0.0748645083229056
  0.7493286784457726  0.2778416594260266  0.0754373420655162
  0.4513847229794143  0.3267779556828968  0.5756473208736225
  0.0440002792559489  0.2282993137320390  0.5750076267462889
  0.2476374809097925  0.5317458736815849  0.5761724589973087
  0.2611027423628872  0.0292831654487018  0.5743746001715444
  0.8493962274663988  0.4312916558715864  0.5758549310459319
  0.8542864672589814  0.9267850738634886  0.5745124067330842
  0.4459889531728532  0.8239177424259487  0.5748442466511573
  0.6552365144500722  0.6291356828193532  0.5761880370587008
  0.7449379432458736  0.7775559335693457  0.0752142898321547
  0.1550420852759485  0.8752387334621462  0.0746178540848654
  0.5554621794918708  0.9796153256474175  0.0745891771893135
  0.6505978326124182  0.1255442455912048  0.5746306995987410
  0.0538740127734204  0.7303332513675121  0.5752873991591773
  0.3507902117805848  0.6799433296096912  0.0755038437575410
 
  0.00000000E+00  0.00000000E+00  0.00000000E+00
  0.00000000E+00  0.00000000E+00  0.00000000E+00
  0.00000000E+00  0.00000000E+00  0.00000000E+00
  0.00000000E+00  0.00000000E+00  0.00000000E+00
  0.00000000E+00  0.00000000E+00  0.00000000E+00
  0.00000000E+00  0.00000000E+00  0.00000000E+00
  0.00000000E+00  0.00000000E+00  0.00000000E+00
  0.00000000E+00  0.00000000E+00  0.00000000E+00
  0.00000000E+00  0.00000000E+00  0.00000000E+00
  0.00000000E+00  0.00000000E+00  0.00000000E+00
  0.00000000E+00  0.00000000E+00  0.00000000E+00
  0.00000000E+00  0.00000000E+00  0.00000000E+00
  0.00000000E+00  0.00000000E+00  0.00000000E+00
  0.00000000E+00  0.00000000E+00  0.00000000E+00
  0.00000000E+00  0.00000000E+00  0.00000000E+00
  0.00000000E+00  0.00000000E+00  0.00000000E+00
  0.00000000E+00  0.00000000E+00  0.00000000E+00
  0.00000000E+00  0.00000000E+00  0.00000000E+00
  0.00000000E+00  0.00000000E+00  0.00000000E+00
  0.00000000E+00  0.00000000E+00  0.00000000E+00
