  PREC = Normal

  EDIFF = 1e-5
  EDIFFG = -1e-2

  IBRION = 2
  ISIF = 3

  NSW = 500

  ISMEAR = 0 
  SIGMA = 0.10
 
  POTIM = 0.5
 
  ISTART = 0
 
  LCHARG = FALSE
  LWAVE = FALSE

PSTRESS=0
