EA0     6.368  9.830  4.214 90.05 89.99 100.82 Sym.group:    0
1.0
    6.367622     0.000000     0.000000
   -1.845543     9.655124     0.000000
    0.000813    -0.003523     4.213912
   V  Fe
  17   3
Direct
    0.568105     0.474335     0.124073 
    0.965275     0.574802     0.125336 
    0.949550     0.068403     0.125337 
    0.162937     0.372542     0.123294 
    0.364558     0.167204     0.124094 
    0.755647     0.267461     0.123490 
    0.464323     0.319531     0.623445 
    0.055211     0.220799     0.623508 
    0.272159     0.525247     0.624624 
    0.267439     0.026164     0.626064 
    0.860551     0.427852     0.623600 
    0.837687     0.935844     0.501910 
    0.428464     0.836125     0.501807 
    0.641104     0.639683     0.501376 
    0.730246     0.788276     0.001745 
    0.137518     0.885630     0.001865 
    0.535622     0.986062     0.001829 
    0.662959     0.127273     0.624724 
    0.034910     0.737383     0.501636 
    0.331812     0.686922     0.001484 
