EA1113  6.297  9.521  4.240 90.00 90.00 100.05 Sym.group:   10
1.0
    6.270788    -0.576530     0.005435
   -0.795426     9.488001     0.017216
   -0.004397    -0.008400     4.239555
   V  Fe
  17   3
Direct
    0.099950     0.224980     0.549908 
    0.107748     0.725427     0.550400 
    0.494700     0.325295     0.549723 
    0.400110     0.675106     0.050514 
    0.800742     0.773990     0.050357 
    0.793434     0.273954     0.049730 
    0.999494     0.576265     0.050257 
    0.204194     0.376414     0.049935 
    0.700475     0.125221     0.549713 
    0.891905     0.924424     0.550191 
    0.908297     0.425684     0.549929 
    0.692396     0.624782     0.550310 
    0.201850     0.874604     0.050532 
    0.006854     0.076226     0.050007 
    0.305580     0.025046     0.550346 
    0.598372     0.475690     0.049924 
    0.596018     0.973836     0.050027 
    0.302419     0.524407     0.550111 
    0.497606     0.825740     0.550395 
    0.400256     0.175150     0.049932 
