EA0     6.719  6.719  6.719 70.02 70.02 
   1.00000000000000     
     7.3135150527773458    0.4284907661305961    0.3302659767267287
     2.9012832765353194    6.7270842903808168    0.3302659857100594
     2.9012833439839785    2.0323803521586390    6.4212286841777146
   V    Fe
    17     3
Direct
  0.5000000000000000  0.5000000000000000 -0.0000000000000000
 -0.0000000000000000  0.5000000000000000  0.5000000000000000
  0.5000000000000000  0.0000000000000000  0.5000000000000000
 -0.0000000000000000  0.0000000000000000 -0.0000000000000000
  0.2876957629946815  0.7608414172163158  0.2876957631215353
  0.2876957630360275  0.2876957630405578  0.7608414172619172
  0.7608414171535058  0.2876957630271544  0.2876957631494779
  0.7123042370053185  0.2391585827836843  0.7123042368784652
  0.7123042369639724  0.7123042369594423  0.2391585827380828
  0.2391585828464940  0.7123042369728457  0.7123042368505218
  0.5000000000000000  0.5000000000000000  0.5000000000000000
  0.6416400318626404  0.6416400318376887  0.6416400317754686
  0.3583599681373598  0.3583599681623110  0.3583599682245321
  0.1067009632872047  0.1067009633044746  0.1067009633475401
  0.8932990367127952  0.8932990366955250  0.8932990366524596
  0.7734338316516086  0.7734338316368133  0.7734338315999187
  0.2265661683483915  0.2265661683631868  0.2265661684000816
 -0.0000000000000000  0.0000000000000000  0.5000000000000000
  0.5000000000000000  0.0000000000000000 -0.0000000000000000
 -0.0000000000000000  0.5000000000000000 -0.0000000000000000
 
  0.00000000E+00  0.00000000E+00  0.00000000E+00
  0.00000000E+00  0.00000000E+00  0.00000000E+00
  0.00000000E+00  0.00000000E+00  0.00000000E+00
  0.00000000E+00  0.00000000E+00  0.00000000E+00
  0.00000000E+00  0.00000000E+00  0.00000000E+00
  0.00000000E+00  0.00000000E+00  0.00000000E+00
  0.00000000E+00  0.00000000E+00  0.00000000E+00
  0.00000000E+00  0.00000000E+00  0.00000000E+00
  0.00000000E+00  0.00000000E+00  0.00000000E+00
  0.00000000E+00  0.00000000E+00  0.00000000E+00
  0.00000000E+00  0.00000000E+00  0.00000000E+00
  0.00000000E+00  0.00000000E+00  0.00000000E+00
  0.00000000E+00  0.00000000E+00  0.00000000E+00
  0.00000000E+00  0.00000000E+00  0.00000000E+00
  0.00000000E+00  0.00000000E+00  0.00000000E+00
  0.00000000E+00  0.00000000E+00  0.00000000E+00
  0.00000000E+00  0.00000000E+00  0.00000000E+00
  0.00000000E+00  0.00000000E+00  0.00000000E+00
  0.00000000E+00  0.00000000E+00  0.00000000E+00
  0.00000000E+00  0.00000000E+00  0.00000000E+00
