EA0     6.719  6.719  6.719 70.02 70.02 70.02 Sym.group:    0
1.0
    6.718815     0.000000     0.000000
    2.295402     6.314555     0.000000
    2.295402     1.607954     6.106398
   V  Fe
  17   3
Direct
    0.500000     0.500000     0.000000 
    0.000000     0.500000     0.500000 
    0.500000     0.000000     0.500000 
    0.000000     0.000000     0.000000 
    0.214665     0.742900     0.214665 
    0.214665     0.214665     0.742900 
    0.742900     0.214665     0.214665 
    0.785335     0.257100     0.785335 
    0.785335     0.785335     0.257100 
    0.257100     0.785335     0.785335 
    0.500000     0.500000     0.500000 
    0.622840     0.622840     0.622840 
    0.377160     0.377160     0.377160 
    0.130799     0.130799     0.130799 
    0.869201     0.869201     0.869201 
    0.748400     0.748400     0.748400 
    0.251600     0.251600     0.251600 
    0.000000     0.000000     0.500000 
    0.500000     0.000000     0.000000 
    0.000000     0.500000     0.000000 
