EA0     6.363  9.740  4.252 90.03 89.99 
   1.00000000000000     
     6.3070945875115774   -0.0409780138440898    0.0001148399006442
    -1.8270319103751758    9.5906019903263271   -0.0029774406468808
     0.0005860582112742   -0.0036969636436810    4.1713775215240645
   V    Fe
    17     3
Direct
  0.3235569218860364  0.7681498872908504  0.4815092261848364
  0.7209591580693698  0.8687568191862114  0.4824834073343814
  0.7054394268584770  0.3623590948266431  0.4825121397772157
  0.9187439403963773  0.6664822483651920  0.4808702961269435
  0.1201698786739381  0.4611762781544487  0.4815129692811671
  0.1149076223616652  0.9657962949667045  0.4835515581391466
  0.9205360517992659  0.1686116276558607  0.4843015336688083
  0.5113427324895906  0.5613816795129872  0.4810047162444566
  0.5113374398818835  0.0659488643316764  0.4840518933107510
  0.2198592870676588  0.6135169363361473  0.9809701505450946
  0.2225787833882141  0.1216585297364246  0.9842422395506782
  0.8107990247597018  0.5148976145975938  0.9810148069091323
  0.0279001144514753  0.8191730100325494  0.9819006709928279
  0.0229762647987026  0.3200140567488496  0.9830926407349476
  0.8107569357564599  0.0177580173872380  0.9839781911637524
  0.6121706233370975  0.2227063971601529  0.9839364752636643
  0.6165054919766855  0.7217747717001050  0.9811374322265707
  0.3132985113506135  0.2616472437987704  0.4832947899230636
  0.4186636208550023  0.4212732829497265  0.9821615094682944
  0.4171301698417795  0.9177203452618766  0.9829833531542788
 
  0.00000000E+00  0.00000000E+00  0.00000000E+00
  0.00000000E+00  0.00000000E+00  0.00000000E+00
  0.00000000E+00  0.00000000E+00  0.00000000E+00
  0.00000000E+00  0.00000000E+00  0.00000000E+00
  0.00000000E+00  0.00000000E+00  0.00000000E+00
  0.00000000E+00  0.00000000E+00  0.00000000E+00
  0.00000000E+00  0.00000000E+00  0.00000000E+00
  0.00000000E+00  0.00000000E+00  0.00000000E+00
  0.00000000E+00  0.00000000E+00  0.00000000E+00
  0.00000000E+00  0.00000000E+00  0.00000000E+00
  0.00000000E+00  0.00000000E+00  0.00000000E+00
  0.00000000E+00  0.00000000E+00  0.00000000E+00
  0.00000000E+00  0.00000000E+00  0.00000000E+00
  0.00000000E+00  0.00000000E+00  0.00000000E+00
  0.00000000E+00  0.00000000E+00  0.00000000E+00
  0.00000000E+00  0.00000000E+00  0.00000000E+00
  0.00000000E+00  0.00000000E+00  0.00000000E+00
  0.00000000E+00  0.00000000E+00  0.00000000E+00
  0.00000000E+00  0.00000000E+00  0.00000000E+00
  0.00000000E+00  0.00000000E+00  0.00000000E+00
