EA0     6.363  9.740  4.252 90.03 89.99 100.53 Sym.group:    0
1.0
    6.363238     0.000000     0.000000
   -1.780582     9.576264     0.000000
    0.000497    -0.002395     4.251540
   V  Fe
  17   3
Direct
    0.323761     0.768289     0.481216 
    0.720931     0.868756     0.482480 
    0.705207     0.362358     0.482480 
    0.918593     0.666496     0.480437 
    0.120214     0.461158     0.481237 
    0.114990     0.965860     0.483887 
    0.920592     0.168593     0.484849 
    0.511303     0.561416     0.480633 
    0.511362     0.065910     0.484520 
    0.219979     0.613486     0.980588 
    0.222656     0.121661     0.984732 
    0.810867     0.514754     0.980651 
    0.027815     0.819202     0.981768 
    0.023096     0.320119     0.983207 
    0.810837     0.017713     0.984469 
    0.612092     0.222703     0.984315 
    0.616207     0.721807     0.980743 
    0.313356     0.261508     0.483365 
    0.418615     0.421228     0.981868 
    0.417159     0.917786     0.983065 
