EA0     8.296  8.296  4.347 90.00 90.00 
   1.00000000000000     
     8.2222835794222693   -0.0000000133422856   -0.0000000000000000
    -4.1111413056880535    7.1207062377489549    0.0000000000000000
    -0.0000000000000000    0.0000000000000000    4.6255821548781917
   V    Fe
    17     3
Direct
  0.0761127311663405  0.5380563119167511  0.2448487937326186
  0.4619436878341762  0.5380564189970652  0.2448487937326186
  0.4619435809994760 -0.0761127309138094  0.2448487937326186
  0.0761127311430439  0.5380564192478888  0.7551512062673812
  0.4619435810210653  0.5380563119365892  0.7551512062673813
  0.4619436878358839 -0.0761127311844710  0.7551512062673813
  0.1537831776898693  0.8462168224102032  0.0000000000000000
  0.1537831776992943  0.3075663552890837  0.0000000000000000
  0.6924336446108436  0.8462168223007062  0.0000000000000000
  0.1177025599907959  0.8822974400742803  0.5000000000000000
  0.1177025599969248  0.2354051199226440  0.5000000000000000
  0.7645948800122794  0.8822974400030753  0.5000000000000000
  0.6666669999999968  0.3333330000000032  0.5000000000000000
  0.7716005431431925  0.2283994567780076  0.0000000000000000
  0.7716005431357712  0.5432010863577642  0.0000000000000000
  0.4567989137210355  0.2283994568642285  0.0000000000000000
  0.0000000000000000  0.0000000000000000  0.0000000000000000
  0.8241681291822748  0.1758318707942640  0.5000000000000000
  0.8241681291800648  0.6483352583858041  0.5000000000000000
  0.3516647416376572  0.1758318708199348  0.5000000000000000
 
  0.00000000E+00  0.00000000E+00  0.00000000E+00
  0.00000000E+00  0.00000000E+00  0.00000000E+00
  0.00000000E+00  0.00000000E+00  0.00000000E+00
  0.00000000E+00  0.00000000E+00  0.00000000E+00
  0.00000000E+00  0.00000000E+00  0.00000000E+00
  0.00000000E+00  0.00000000E+00  0.00000000E+00
  0.00000000E+00  0.00000000E+00  0.00000000E+00
  0.00000000E+00  0.00000000E+00  0.00000000E+00
  0.00000000E+00  0.00000000E+00  0.00000000E+00
  0.00000000E+00  0.00000000E+00  0.00000000E+00
  0.00000000E+00  0.00000000E+00  0.00000000E+00
  0.00000000E+00  0.00000000E+00  0.00000000E+00
  0.00000000E+00  0.00000000E+00  0.00000000E+00
  0.00000000E+00  0.00000000E+00  0.00000000E+00
  0.00000000E+00  0.00000000E+00  0.00000000E+00
  0.00000000E+00  0.00000000E+00  0.00000000E+00
  0.00000000E+00  0.00000000E+00  0.00000000E+00
  0.00000000E+00  0.00000000E+00  0.00000000E+00
  0.00000000E+00  0.00000000E+00  0.00000000E+00
  0.00000000E+00  0.00000000E+00  0.00000000E+00
