EA0     8.296  8.296  4.347 90.00 90.00 120.00 Sym.group:    0
1.0
    8.295653     0.000000     0.000000
   -4.147826     7.184246     0.000000
    0.000000     0.000000     4.346991
   V  Fe
  17   3
Direct
    0.985775     0.437178     0.218819 
    0.562822     0.548597     0.218819 
    0.451403     0.014225     0.218819 
    0.985775     0.548597     0.781181 
    0.451403     0.437178     0.781181 
    0.562822     0.014225     0.781181 
    0.178901     0.821099     0.000000 
    0.178901     0.357802     0.000000 
    0.642198     0.821099     0.000000 
    0.104652     0.895348     0.500000 
    0.104652     0.209304     0.500000 
    0.790696     0.895348     0.500000 
    0.666667     0.333333     0.500000 
    0.829310     0.170690     0.000000 
    0.829310     0.658620     0.000000 
    0.341380     0.170690     0.000000 
    0.000000     0.000000     0.000000 
    0.820704     0.179296     0.500000 
    0.820704     0.641407     0.500000 
    0.358593     0.179296     0.500000 
