EA0     6.374  9.711  4.138 90.00 90.00 
   1.00000000000000     
     6.3936667359175114    0.0420723452105308   -0.0003012473003224
    -1.8215690137083527    9.4862901409747540   -0.0016499452291569
     0.0002567687667663    0.0009001368221671    4.1444267542724127
   V    Fe
    17     3
Direct
  0.1897965248128352  0.1943133455501025  0.7914647445787734
  0.2046469394233898  0.6899313809139724  0.7914036310313911
  0.0936267413816497  0.0418090675124979  0.2914763737768331
  0.0953722027796941  0.5369086824142780  0.2914061936600810
  0.4896727775519126  0.1442471937673419  0.2914661025722799
  0.2971363382880934  0.3463240617222884  0.2914370533784972
  0.6852626140256559  0.9391612115033363  0.2914665839603600
  0.9085625783093574  0.7396236748047180  0.2914081947235266
  0.8911946552345785  0.2440860762304275  0.2914559257175627
  0.4983028406378171  0.6401431164333788  0.2913981745606790
  0.5940321708906714  0.2940407939723539  0.7914436570942940
  0.9935175554651758  0.8912452911018810  0.7914519259367073
  0.3895894853431202  0.9886586321558654  0.7914752509976734
  0.5986618301408129  0.7896678462291602  0.7914208889096548
  0.7912285544497270  0.0903385690639078  0.7914743607444020
  0.7974090055334029  0.5877764049052552  0.7914003389743988
  0.6971488536443575  0.4423165968450812  0.2914143021263994
  0.2956951530744480  0.8383474313262459  0.2914415377651841
  0.9968464491038360  0.3912380712149919  0.7914337717349353
  0.3955347299094660  0.4931965523329099  0.7914149877563782
 
  0.00000000E+00  0.00000000E+00  0.00000000E+00
  0.00000000E+00  0.00000000E+00  0.00000000E+00
  0.00000000E+00  0.00000000E+00  0.00000000E+00
  0.00000000E+00  0.00000000E+00  0.00000000E+00
  0.00000000E+00  0.00000000E+00  0.00000000E+00
  0.00000000E+00  0.00000000E+00  0.00000000E+00
  0.00000000E+00  0.00000000E+00  0.00000000E+00
  0.00000000E+00  0.00000000E+00  0.00000000E+00
  0.00000000E+00  0.00000000E+00  0.00000000E+00
  0.00000000E+00  0.00000000E+00  0.00000000E+00
  0.00000000E+00  0.00000000E+00  0.00000000E+00
  0.00000000E+00  0.00000000E+00  0.00000000E+00
  0.00000000E+00  0.00000000E+00  0.00000000E+00
  0.00000000E+00  0.00000000E+00  0.00000000E+00
  0.00000000E+00  0.00000000E+00  0.00000000E+00
  0.00000000E+00  0.00000000E+00  0.00000000E+00
  0.00000000E+00  0.00000000E+00  0.00000000E+00
  0.00000000E+00  0.00000000E+00  0.00000000E+00
  0.00000000E+00  0.00000000E+00  0.00000000E+00
  0.00000000E+00  0.00000000E+00  0.00000000E+00
