EA0     6.374  9.711  4.138 90.00 90.00 100.45 Sym.group:    0
1.0
    6.374277     0.039444    -0.000582
   -1.820217     9.538399    -0.001755
    0.000074     0.000822     4.138048
   V  Fe
  17   3
Direct
    0.194451     0.192808     0.791677 
    0.200921     0.695546     0.791194 
    0.098593     0.038097     0.291776 
    0.091548     0.539936     0.291145 
    0.496954     0.141013     0.291676 
    0.297284     0.341822     0.291416 
    0.689371     0.938379     0.291673 
    0.902010     0.741937     0.291243 
    0.896830     0.241754     0.291615 
    0.491872     0.644154     0.291136 
    0.602198     0.291254     0.791513 
    0.991153     0.890530     0.791611 
    0.398424     0.987884     0.791732 
    0.592718     0.789175     0.791350 
    0.796528     0.088316     0.791695 
    0.792775     0.592680     0.791075 
    0.692205     0.444283     0.291219 
    0.295816     0.839636     0.291502 
    0.995884     0.393981     0.791336 
    0.385703     0.490189     0.791170 
