EA0     7.296  5.891  6.760 84.20 64.52 
   1.00000000000000     
     7.2056545201323825    0.2333395941692064   -0.2778801479990540
    -0.1233590163199641    6.4808128092085147   -0.4251373197595294
     2.5945969826524991    0.5277785828883813    5.2288878125425056
   V    Fe
    17     3
Direct
  0.0864801941797893  0.0880744340815592  0.0177754717075678
  0.5876452477312080  0.5836333989743754  0.0187045750037416
 -0.0098550750316377  0.3868127697876182  0.3167707917845998
  0.2889455731384230  0.4914221757839045  0.4175181548506370
  0.4877850546110077  0.8843297709052539  0.3174896836491113
  0.6877897612193535  0.2897193326087508  0.7175671600857338
  0.3855203767008528  0.1925341520443744  0.6167284086116532
  0.8882715648811402  0.6853733665744841  0.6176311522417842
  0.7883089652187389 -0.0048623679301268 -0.0842701992823123
  0.4869446899205566  0.8942437613567877  0.8176877800623988
  0.1876920848206514  0.7898038110364259  0.2178348021365892
  0.7876821786991647 -0.0042334946334327  0.4165787734509756
 -0.0101026503267965  0.3868459306021337  0.8186655852704993
  0.8875520074310399  0.6950250450365750  0.1178488355857077
  0.1876804395864069  0.7896510131653477  0.7177069307250732
  0.3852400246234000  0.1926480880466960  0.1186320560623147
  0.5870257276462173  0.5842535436788387  0.5195415734939048
  0.6876241139486536  0.2897765810088639  0.2177133865638121
  0.0878650872503359  0.0911508551336383  0.5171544912570281
  0.2875186337514793  0.4882528327379253 -0.0818044132608244
 
  0.00000000E+00  0.00000000E+00  0.00000000E+00
  0.00000000E+00  0.00000000E+00  0.00000000E+00
  0.00000000E+00  0.00000000E+00  0.00000000E+00
  0.00000000E+00  0.00000000E+00  0.00000000E+00
  0.00000000E+00  0.00000000E+00  0.00000000E+00
  0.00000000E+00  0.00000000E+00  0.00000000E+00
  0.00000000E+00  0.00000000E+00  0.00000000E+00
  0.00000000E+00  0.00000000E+00  0.00000000E+00
  0.00000000E+00  0.00000000E+00  0.00000000E+00
  0.00000000E+00  0.00000000E+00  0.00000000E+00
  0.00000000E+00  0.00000000E+00  0.00000000E+00
  0.00000000E+00  0.00000000E+00  0.00000000E+00
  0.00000000E+00  0.00000000E+00  0.00000000E+00
  0.00000000E+00  0.00000000E+00  0.00000000E+00
  0.00000000E+00  0.00000000E+00  0.00000000E+00
  0.00000000E+00  0.00000000E+00  0.00000000E+00
  0.00000000E+00  0.00000000E+00  0.00000000E+00
  0.00000000E+00  0.00000000E+00  0.00000000E+00
  0.00000000E+00  0.00000000E+00  0.00000000E+00
  0.00000000E+00  0.00000000E+00  0.00000000E+00
