EA0     7.296  5.891  6.760 84.20 64.52 93.66 Sym.group:    0
1.0
    7.295595     0.000000     0.000000
   -0.375836     5.878955     0.000000
    2.907593     0.870292     6.040316
   V  Fe
  17   3
Direct
    0.140389     0.988859     0.044998 
    0.578146     0.600088     0.022952 
    0.896899     0.473032     0.358089 
    0.386449     0.228581     0.325464 
    0.482231     0.847217     0.404284 
    0.683687     0.375741     0.791764 
    0.470382     0.254369     0.642718 
    0.943450     0.947833     0.405161 
    0.674003     0.926008     0.025509 
    0.397122     0.873335     0.696535 
    0.309030     0.808389     0.238204 
    0.672113     0.047510     0.439628 
    0.195738     0.367633     0.789517 
    0.913906     0.716133     0.103367 
    0.096918     0.609764     0.692425 
    0.273998     0.197001     0.135462 
    0.593522     0.534895     0.451987 
    0.710938     0.296594     0.125891 
    0.111093     0.081625     0.633068 
    0.223600     0.619848     0.026452 
