EA0    10.265  5.095  4.953 90.00 90.00 
   1.00000000000000     
     7.4205371102329254   -0.0005441436022127    0.0008072357128038
    -0.0003286876273598    5.1228396431028500   -0.0000348778907987
     0.0006828187771041   -0.0000244375326813    6.8425797513067801
   V    Fe
    17     3
Direct
  0.0001173649413691  0.0003927446867402  0.2500128736414342
  0.5001044417217246  0.5001761031610445  0.7501705085753685
  0.5001139515174937  0.5001819321122681  0.2500392243226312
  0.1616925520039106  0.5000505502360734  0.2500343419448292
  0.8385297139594318  0.5000751122033958  0.2501299090735231
  0.1610800936994532  0.5000436248908700  0.7502719626100263
  0.8391335676820713  0.4999533709029555  0.7500380933716487
  0.3362939404580767  0.0001403783701686  0.2500707155166310
  0.6639438770087664  0.0000783574367212  0.2503480606433938
  0.8446176935826272  0.2138048033892922 -0.0171824080727247
  0.1552106517082038  0.7864952555598497 -0.0171050550338771
  0.1553458739392035  0.2138529234204984  0.5174921107353173
  0.8452611780311060  0.7864725097477930  0.5173937885935055
  0.4164843337037979  0.2395279486056445 -0.0015302491363520
  0.5842991374600709  0.7608568229729040 -0.0016104863391798
  0.5836233940233523  0.2397222780422560  0.5017913525330392
  0.4160463252986957  0.7605957845637549  0.5018572515084191
  0.0001183552628361  0.0000124966495645  0.7502174991724659
  0.3343241136870510  0.0000703350131252  0.7502787698101904
  0.6658994403107741 -0.0002633319648899  0.7496017365297645
 
  0.00000000E+00  0.00000000E+00  0.00000000E+00
  0.00000000E+00  0.00000000E+00  0.00000000E+00
  0.00000000E+00  0.00000000E+00  0.00000000E+00
  0.00000000E+00  0.00000000E+00  0.00000000E+00
  0.00000000E+00  0.00000000E+00  0.00000000E+00
  0.00000000E+00  0.00000000E+00  0.00000000E+00
  0.00000000E+00  0.00000000E+00  0.00000000E+00
  0.00000000E+00  0.00000000E+00  0.00000000E+00
  0.00000000E+00  0.00000000E+00  0.00000000E+00
  0.00000000E+00  0.00000000E+00  0.00000000E+00
  0.00000000E+00  0.00000000E+00  0.00000000E+00
  0.00000000E+00  0.00000000E+00  0.00000000E+00
  0.00000000E+00  0.00000000E+00  0.00000000E+00
  0.00000000E+00  0.00000000E+00  0.00000000E+00
  0.00000000E+00  0.00000000E+00  0.00000000E+00
  0.00000000E+00  0.00000000E+00  0.00000000E+00
  0.00000000E+00  0.00000000E+00  0.00000000E+00
  0.00000000E+00  0.00000000E+00  0.00000000E+00
  0.00000000E+00  0.00000000E+00  0.00000000E+00
  0.00000000E+00  0.00000000E+00  0.00000000E+00
