EA0    10.265  5.095  4.953 90.00 90.00 90.00 Sym.group:    0
1.0
   10.264825     0.000000     0.000000
    0.000000     5.095419     0.000000
    0.000000     0.000000     4.953236
   V  Fe
  17   3
Direct
    0.000120     0.000120     0.250120 
    0.500120     0.500120     0.750120 
    0.500120     0.500120     0.250120 
    0.216920     0.500120     0.250120 
    0.783300     0.500100     0.250120 
    0.216900     0.500100     0.750120 
    0.783320     0.500120     0.750120 
    0.283320     0.000120     0.250120 
    0.716900     0.000100     0.250120 
    0.858500     0.191720     0.000100 
    0.141720     0.808500     0.000100 
    0.141720     0.191720     0.500120 
    0.858500     0.808500     0.500120 
    0.358500     0.308500     0.000120 
    0.641720     0.691720     0.000120 
    0.641720     0.308500     0.500100 
    0.358500     0.691720     0.500100 
    0.000120     0.000120     0.750120 
    0.283300     0.000100     0.750120 
    0.716920     0.000120     0.750120 
