EA0     6.601  9.336  4.278 90.00 90.00 
   1.00000000000000     
     7.5486314799964553   -0.1409866372285397    0.0000388172648205
    -2.0719085034043792    7.9264779333674973   -0.0000299724579791
    -0.0001862681161474   -0.0000535860935218    4.2179506343499886
   V    Fe
    17     3
Direct
  0.8614490419627893  0.6200304428481264  0.1453925111269382
  0.8620246127930713  0.1053710460069944  0.1453977805408024
  0.2551599827948661  0.7198628094088403  0.1454117840239227
  0.4668974876428126  0.5217624032455243  0.1453855073399313
  0.6594775009274516  0.3098826009310354  0.1453748406912866
  0.2597298291783131  0.2069251467537247  0.1453861917855204
  0.4571774094032529  0.0077409139123848  0.1454041102423960
  0.0612803706115458  0.4136707310675437  0.1453613799039237
  0.8633501619120207  0.3628515607502392  0.6453673535360669
  0.8667579251097554  0.8640735241535139  0.6454215832160863
  0.2643974962540201  0.4674867031738384  0.6453696955125627
  0.6675202950845037  0.0622479626909175  0.6454067555606020
  0.0667031559174274  0.1562649372837726  0.6453985308824551
  0.0669658923650216  0.6750482741575790  0.6454081524647033
  0.4582182995011354  0.2578417948348508  0.6453708828826212
  0.4661471038551508  0.7693551779172350  0.6454133870545014
  0.6625970626410611  0.5650740273187105  0.6453947802913813
  0.0554558931967578  0.9133835870826457  0.1454713879969049
  0.6613701517719938  0.8149303610504345  0.1454770510520797
  0.2714273270770395  0.9626859954120780  0.6454633338953127
 
  0.00000000E+00  0.00000000E+00  0.00000000E+00
  0.00000000E+00  0.00000000E+00  0.00000000E+00
  0.00000000E+00  0.00000000E+00  0.00000000E+00
  0.00000000E+00  0.00000000E+00  0.00000000E+00
  0.00000000E+00  0.00000000E+00  0.00000000E+00
  0.00000000E+00  0.00000000E+00  0.00000000E+00
  0.00000000E+00  0.00000000E+00  0.00000000E+00
  0.00000000E+00  0.00000000E+00  0.00000000E+00
  0.00000000E+00  0.00000000E+00  0.00000000E+00
  0.00000000E+00  0.00000000E+00  0.00000000E+00
  0.00000000E+00  0.00000000E+00  0.00000000E+00
  0.00000000E+00  0.00000000E+00  0.00000000E+00
  0.00000000E+00  0.00000000E+00  0.00000000E+00
  0.00000000E+00  0.00000000E+00  0.00000000E+00
  0.00000000E+00  0.00000000E+00  0.00000000E+00
  0.00000000E+00  0.00000000E+00  0.00000000E+00
  0.00000000E+00  0.00000000E+00  0.00000000E+00
  0.00000000E+00  0.00000000E+00  0.00000000E+00
  0.00000000E+00  0.00000000E+00  0.00000000E+00
  0.00000000E+00  0.00000000E+00  0.00000000E+00
