EA0     6.601  9.336  4.278 90.00 90.00 100.71 Sym.group:    0
1.0
    6.600969     0.000000     0.000000
   -1.735063     9.173593     0.000000
   -0.000190    -0.000044     4.278321
   V  Fe
  17   3
Direct
    0.861570     0.620686     0.145419 
    0.862015     0.105412     0.145452 
    0.255375     0.719998     0.145404 
    0.466515     0.521554     0.145429 
    0.659650     0.310230     0.145451 
    0.259962     0.206488     0.145464 
    0.457240     0.007341     0.145420 
    0.061172     0.413726     0.145444 
    0.863474     0.363229     0.645419 
    0.866796     0.864363     0.645372 
    0.264356     0.467109     0.645442 
    0.667414     0.061968     0.645389 
    0.066635     0.156233     0.645411 
    0.066818     0.675260     0.645376 
    0.458362     0.257330     0.645430 
    0.466083     0.769299     0.645375 
    0.662607     0.565363     0.645392 
    0.055274     0.913381     0.145346 
    0.661390     0.815178     0.145337 
    0.271399     0.962342     0.645305 
